WARNING: for repeatability, setting FPU to use double precision
============================[ Problem Statistics ]=============================
|                                                                             |
|  Number of variables:         46169                                         |
|  Number of clauses:          207564                                         |
|  Parse time:                   0.05 s                                       |
|                                                                             |
c ============================[ Search Statistics ]==============================
c | Conflicts |          ORIGINAL         |          LEARNT          | Progress |
c |           |    Vars  Clauses Literals |    Limit  Clauses Lit/Cl |          |
c ===============================================================================
c Switched to VSIDS.
c Switched to LRB.
c Switched to VSIDS.
c Switched to LRB.
c Switched to VSIDS.
c Switched to LRB.
c Switched to VSIDS.
c Switched to LRB.
c Switched to VSIDS.
c Switched to LRB.
c Switched to VSIDS.
c Switched to LRB.
c Switched to VSIDS.
c Switched to LRB.
c Switched to VSIDS.
c Switched to LRB.
c Switched to VSIDS.
c Switched to LRB.
c Switched to VSIDS.
c Switched to LRB.
c Switched to VSIDS.
c Switched to LRB.
c Switched to VSIDS.
c ===============================================================================
restarts                  : 10082
conflicts                 : 1968864        (1650 /sec)
decisions                 : 8065207        (0.00 % random) (6760 /sec)
propagations              : 2762105322     (2315277 /sec)
conflict literals         : 149611569      (34.84 % deleted)

conflicts w/ DIP found    : 1394195        (70.81 % of conflicts)
conflicts w/ dangerous DIP: 0              (0.00 % of conflicts)
conflicts w/ DIP-learning : 1256           (0.06 % of conflicts)
decisions on ext vars     : 24379          (0.30 % of decisions)
total ext vars            : 588         
tried delete ext vars     : 110         
deleted ext vars          : 110         
max ext vars              : 478         

Memory used               : 299.00 MB
CPU time                  : 1192.99 s
DIP computation time      : 25.8851 s (2.17 % of total time)
ER_sel time               : 2.49802 s
ER_add time               : 0.003661 s
ER_delC time              : 0 s
ER_delV time              : 0.001485 s
ER_sub time               : 3.50215 s
ER_stat time              : 0 s

UNSATISFIABLE
